data/solutions/recovery/wellformed/moderate/flexible/wellformed_moderate_instance11/20.sol
Elapsed time: 0.83
Upper bound: 11159.0
Planning weighted value: 74323.0
C[0]=11159.0
C[1]=11159.0
C[2]=11154.0
y[0]=1
y[1]=2
y[2]=2
y[3]=1
y[4]=2
y[5]=0
y[6]=2
y[7]=2
y[8]=0
y[9]=2
y[10]=1
y[11]=2
y[12]=0
y[13]=2
y[14]=0
y[15]=1
y[16]=1
y[17]=0
y[18]=2
y[19]=1
y[20]=1
y[21]=0
y[22]=0
y[23]=0
y[24]=1
y[25]=2
y[26]=1
y[27]=0
y[28]=1
y[29]=0
y[30]=1
y[31]=0
y[32]=1
