data/solutions/recovery/wellformed/moderate/flexible/wellformed_moderate_instance11/20.log

Log started (V12.6.3.0) Fri Apr 20 20:57:14 2018

New value for default parallel thread count: 1

Problem '/tmp/tmpCIaRJl.pyomo.lp' read.
Read time = 0.00 sec. (0.03 ticks)

Problem name         : /tmp/tmpCIaRJl.pyomo.lp
Objective sense      : Minimize
Variables            :     104  [Nneg: 1,  Binary: 99,  General Integer: 4]
Objective nonzeros   :       1
Linear constraints   :      73  [Less: 36,  Equal: 37]
  Nonzeros           :    2185
  RHS nonzeros       :      67

Variables            : Min LB: 0.000000         Max UB: 1.000000       
Objective nonzeros   : Min   : 1.000000         Max   : 1.000000       
Linear constraints   :
  Nonzeros           : Min   : 1.000000         Max   : 1950.000       
  RHS nonzeros       : Min   : 1.000000         Max   : 4.000000       
Tried aggregator 2 times.
MIP Presolve eliminated 33 rows and 3 columns.
Aggregator did 4 substitutions.
Reduced MIP has 36 rows, 97 columns, and 253 nonzeros.
Reduced MIP has 96 binaries, 1 generals, 0 SOSs, and 0 indicators.
Presolve time = 0.00 sec. (0.76 ticks)
Found incumbent of value 33472.000000 after 0.00 sec. (0.95 ticks)
Probing time = 0.00 sec. (0.07 ticks)
Cover probing fixed 0 vars, tightened 1 bounds.
Tried aggregator 1 time.
Reduced MIP has 36 rows, 97 columns, and 253 nonzeros.
Reduced MIP has 96 binaries, 1 generals, 0 SOSs, and 0 indicators.
Presolve time = 0.00 sec. (0.17 ticks)
Probing time = 0.00 sec. (0.04 ticks)
Clique table members: 32.
MIP emphasis: balance optimality and feasibility.
MIP search method: dynamic search.
Parallel mode: none, using 1 thread.
Root relaxation solution time = 0.00 sec. (0.08 ticks)

        Nodes                                         Cuts/
   Node  Left     Objective  IInf  Best Integer    Best Bound    ItCnt     Gap

*     0+    0                        33472.0000     1950.0000            94.17%
      0     0    11157.3333     5    33472.0000    11157.3333        4   66.67%
*     0+    0                        11436.0000    11157.3333             2.44%
      0     0    11158.0000     8    11436.0000      Fract: 2        9    2.43%
*     0+    0                        11274.0000    11158.0000             1.03%
      0     0    11158.0000     7    11274.0000    MIRcuts: 3       17    1.03%
      0     0    11158.0000     6    11274.0000       Cuts: 7       25    1.03%
*     0+    0                        11248.0000    11158.0000             0.80%
      0     2    11158.0000     6    11248.0000    11158.0000       25    0.80%
Elapsed time = 0.01 sec. (4.76 ticks, tree = 0.01 MB, solutions = 4)
*    10+   10                        11247.0000    11158.0000             0.79%
*    30    29      integral     0    11228.0000    11158.0000       85    0.62%
*    50    33      integral     0    11186.0000    11158.0000      134    0.25%
*   559+  132                        11185.0000    11158.0000             0.24%
*   789+   88                        11183.0000    11158.0000             0.22%
*   790    88      integral     0    11180.0000    11158.0000     1813    0.20%
*   808    97      integral     0    11176.0000    11158.0000     1844    0.16%
*  1059+   50                        11173.0000    11158.0000             0.13%
*  1229+   74                        11169.0000    11158.0000             0.10%
*  1229+   74                        11165.0000    11158.0000             0.06%
*  1329+  145                        11164.0000    11158.0000             0.05%
*  1429+  194                        11161.0000    11158.0000             0.03%
   2029   553    11158.0000     6    11161.0000    11158.0000     4271    0.03%
   2030   552        cutoff          11161.0000    11158.0000     4273    0.03%
   2031   551        cutoff          11161.0000    11158.0000     4275    0.03%
   2032   552    11158.0000     6    11161.0000    11158.0000     4281    0.03%
   2033   553    11158.0000     4    11161.0000    11158.0000     4284    0.03%
   2034   554    11158.0000     4    11161.0000    11158.0000     4286    0.03%
   2035   555    11158.0000     4    11161.0000    11158.0000     4287    0.03%
   2036   556    11158.0000     4    11161.0000    11158.0000     4288    0.03%
   2037   557    11158.0000     4    11161.0000    11158.0000     4289    0.03%
*  2629+  853                        11159.0000    11158.0000             0.01%

Mixed integer rounding cuts applied:  1
Gomory fractional cuts applied:  1

Root node processing (before b&c):
  Real time             =    0.01 sec. (4.77 ticks)
Sequential b&c:
  Real time             =    0.80 sec. (384.31 ticks)
                          ------------
Total (root+branch&cut) =    0.81 sec. (389.07 ticks)

Solution pool: 17 solutions saved.

MIP - Integer optimal, tolerance (0.0001/1e-06):  Objective =  1.1159000000e+04
Current MIP best bound =  1.1158000000e+04 (gap = 1, 0.01%)
Solution time =    0.81 sec.  Iterations = 5527  Nodes = 2629 (854)
Deterministic time = 389.07 ticks  (478.33 ticks/sec)


Incumbent solution written to file '/tmp/tmpWD6Mx_.cplex.sol'.
